TCS_Benchmarks/redos_fix/snort4_output_distinct_128_127_0_0.smt2
(set-logic QF_S)
(declare-const x String)
(assert (str.in.re x (re.inter  (re.++ (re.* (re.comp  (str.to.re "\u{3e}")) ) (re.+ (re.comp  (str.to.re "\u{26}")) ))  (re.++ (re.* (re.comp  (str.to.re "\u{3e}")) ) (re.++  (re.++  (str.to.re "\u{26}") (re.++  (re.union  (str.to.re "\u{6d}")  (str.to.re "\u{4d}")) (re.++  (re.union  (str.to.re "\u{65}")  (str.to.re "\u{45}")) (re.++  (re.union  (str.to.re "\u{73}")  (str.to.re "\u{53}")) (re.++  (re.union  (str.to.re "\u{73}")  (str.to.re "\u{53}")) (re.++  (re.union  (str.to.re "\u{61}")  (str.to.re "\u{41}")) (re.++  (re.union  (str.to.re "\u{67}")  (str.to.re "\u{47}")) (re.++  (re.union  (str.to.re "\u{65}")  (str.to.re "\u{45}"))  (str.to.re "\u{3d}"))))))))) (re.+ (re.comp  (str.to.re "\u{26}")) ))) )))
(check-sat)
(get-model)