TCS_Benchmarks/redos_fix/snort4_output_distinct_128_127_0_0.txt
([^>]*)([^&]+)
([^>]*)(&[mM][eE][sS][sS][aA][gG][eE]=)([^&]+)